! Solving for graph /home/truongxuanhieu/CPLEX-CP-for-MinSpanLabeling/benchmarks/cabp/S-sherman4.mtx.rnd
! Target value is set to 322
! Lower bound is set to 323
! Upper bound is set to 683
! Time limit is set to 1800
! Vertices mode is set to Has hole
! Target value mode is set to Cyclic Antibandwidth
 ! --------------------------------------------------- CP Optimizer 22.2.0.0 --
 ! Minimization problem - 547 variables, 1344 constraints, 1 phase
 ! TimeLimit            = 1800
 ! LogVerbosity         = Terse
 ! Initial process time : 0.04s (0.04s extraction + 0.00s propagation)
 !  . Log search space  : 5140.3 (before), 5140.3 (after)
 !  . Memory usage      : 2.8 MB (before), 2.8 MB (after)
 ! Using parallel search with 8 workers.
 ! ----------------------------------------------------------------------------
 !          Best Branches  Non-fixed    W       Branch decision
                        0        547                 -
 + New bound is 644
                       42        546    1   F   323 != _int165
 + New bound is 645
 *           645      588  0.13s        1      (gap is 0.00%)
 ! ----------------------------------------------------------------------------
 ! Search completed, 1 solution found.
 ! Best objective         : 645 (optimal - effective tol. is 0)
 ! Best bound             : 645
 ! ----------------------------------------------------------------------------
 ! Number of branches     : 6357
 ! Number of fails        : 1359
 ! Total memory usage     : 50.3 MB (48.9 MB CP Optimizer + 1.3 MB Concert)
 ! Time spent in solve    : 0.13s (0.09s engine + 0.04s extraction)
 ! Search speed (br. / s) : 70633.3
 ! ----------------------------------------------------------------------------
! --------------------------------------------------------
! Best span = 645
! Labeling: 323 323 1 1 1 323 323 323 323 323 1 323 323 1 323 323 323 1 1 1 323 1 1 323 1 1 323 323 323 1 1 1 1 1 323 323 1 323 1 323 323 1 323 1 1 1 1 1 1 1 1 1 323 323 1 323 323 1 1 1 1 1 1 1 1 323 1 323 1 323 1 323 323 323 323 323 323 1 323 323 1 1 323 1 323 323 1 323 323 323 323 323 1 1 323 1 323 1 1 1 1 323 323 1 1 1 1 323 1 323 1 323 323 323 323 1 1 1 1 1 323 1 1 1 1 1 1 323 1 1 323 1 1 1 1 323 323 1 323 1 1 1 323 323 323 323 323 323 1 323 323 1 323 323 1 1 1 1 323 323 323 323 1 323 1 1 323 1 323 323 323 323 1 1 323 1 1 1 323 323 323 323 323 323 323 1 1 1 1 323 323 1 323 1 1 1 323 323 323 1 323 323 323 1 1 1 323 323 1 323 323 1 323 1 323 323 1 323 1 1 1 1 323 323 323 1 323 1 1 323 1 323 323 1 1 1 1 323 323 323 1 1 323 323 1 1 1 1 323 323 323 323 1 1 1 1 323 1 1 323 323 1 323 323 645 1 1 1 1 1 323 1 1 323 323 323 1 323 1 1 1 323 1 323 1 1 323 1 1 323 323 1 1 1 1 1 323 323 1 1 323 323 323 323 323 1 323 323 323 323 1 1 323 1 323 1 323 323 1 323 1 1 323 323 1 323 323 1 1 323 323 323 1 1 1 1 1 1 323 323 1 1 323 1 1 323 1 323 1 323 323 323 1 323 1 323 323 323 323 323 323 323 323 1 323 1 1 1 1 323 1 323 323 323 323 1 323 323 1 323 323 323 1 1 1 323 1 323 323 323 323 1 323 1 1 1 323 323 323 1 1 1 323 323 1 323 1 323 323 1 323 1 1 1 1 323 323 323 1 323 323 323 323 1 1 1 323 323 323 323 1 323 323 1 1 1 1 323 1 1 323 323 1 323 323 323 1 323 323 1 323 1 1 1 1 323 323 323 323 323 1 1 323 323 1 323 1 1 1 1 323 1 1 323 323 1 323 1 323 1 1 323 323 1 323 323 323 323 1 323 323 323 323 1 323 1 323 1 323 323 1 323 1 1 1 1 1 1 323 1 1 1 1 1 1 1 323 1 323 1 323 323 323 1 323 323 1 1 1 323 1 323 323 1 1 323 323 323 1 323 323 323 323 323 1 1 
! -------------------------------------------------------- 
